(set-info :smt-lib-version 2.6)
(set-logic QF_SLIA)
(set-info :source |
Generated by: Hung-En Wang, Shih-Yu Chen, Fang Yu, and Jie-Hong R. Jiang
Generated on: 2019-02-28
Generator: modified from Kaluza benchmarks
Application: Security analysis of string manipulating web applications with string length constraints
Target solver: ABC, CVC4, Norn, S3P, Trau, Z3-str3
Publication:
Hung-En Wang, Shih-Yu Chen, Fang Yu, Jie-Hong R. Jiang:
A symbolic model checking approach to the analysis of string and length constraints. ASE 2018: 623-633
|)
(set-info :license "https://creativecommons.org/licenses/by/4.0/")
(set-info :category "industrial")
(set-info :status unknown)

(declare-fun T_102 () Bool)
(declare-fun T_66 () Bool)
(declare-fun T_67 () Bool)
(declare-fun T_SELECT_10 () Bool)
(declare-fun I0_154 () Int)
(declare-fun I0_158 () Int)
(declare-fun I1_154 () Int)
(declare-fun I1_158 () Int)
(declare-fun I2_154 () Int)
(declare-fun I2_158 () Int)
(declare-fun PCTEMP_LHS_40 () Int)
(declare-fun T_6b () Int)
(declare-fun NEW_DGNode_340 () String)
(declare-fun NEW_DGNode_341 () String)
(declare-fun NEW_DGNode_642 () String)
(declare-fun NEW_DGNode_643 () String)
(declare-fun NEW_DGNode_708 () String)
(declare-fun NEW_DGNode_709 () String)
(declare-fun NEW_DGNode_711 () String)
(declare-fun NEW_DGNode_712 () String)
(declare-fun NEW_DGNode_783 () String)
(declare-fun NEW_DGNode_784 () String)
(declare-fun PCTEMP_LHS_103 () String)
(declare-fun PCTEMP_LHS_41 () String)
(declare-fun T1_154 () String)
(declare-fun T1_158 () String)
(declare-fun T2_154 () String)
(declare-fun T2_158 () String)
(declare-fun T3_154 () String)
(declare-fun T3_158 () String)
(declare-fun T_6a () String)
(assert (= T_6a NEW_DGNode_643))
(assert (= NEW_DGNode_643 NEW_DGNode_642))
(assert (= NEW_DGNode_643 NEW_DGNode_340))
(assert (= NEW_DGNode_340 NEW_DGNode_341))
(assert (= NEW_DGNode_340 (str.++ T1_154 T2_154)))
(assert (= T2_154 (str.++ PCTEMP_LHS_41 T3_154)))
(assert (= NEW_DGNode_341 (str.++ T1_158 T2_158)))
(assert (= T2_158 (str.++ PCTEMP_LHS_103 T3_158)))
(assert (= PCTEMP_LHS_103 NEW_DGNode_784))
(assert (= NEW_DGNode_784 NEW_DGNode_783))
(assert (= NEW_DGNode_784 NEW_DGNode_712))
(assert (= NEW_DGNode_712 NEW_DGNode_711))
(assert (= NEW_DGNode_712 NEW_DGNode_709))
(assert (= NEW_DGNode_709 NEW_DGNode_708))
(assert (not (str.in_re NEW_DGNode_709 (str.to_re ""))))
(assert (not (str.in_re NEW_DGNode_708 (str.to_re "+"))))
(assert (not (str.in_re NEW_DGNode_711 (str.to_re "%"))))
(assert (not (str.in_re NEW_DGNode_783 (str.to_re "%"))))
(assert (not (str.in_re NEW_DGNode_642 (str.to_re "&"))))
(assert (= T_SELECT_10 (not (= PCTEMP_LHS_40 (- 1)))))
(assert T_67)
(assert (= T_67 (not T_66)))
(assert (= T_66 (= PCTEMP_LHS_40 (- 1))))
(assert (= I0_154 (- PCTEMP_LHS_40 0)))
(assert (>= PCTEMP_LHS_40 0))
(assert (>= I2_158 T_6b))
(assert (= I2_158 I1_158))
(assert (<= I2_158 I1_158))
(assert (= I0_158 (- I2_158 T_6b)))
(assert (>= T_6b 0))
(assert (= T_6b (+ PCTEMP_LHS_40 1)))
(assert (<= PCTEMP_LHS_40 I1_154))
(assert (= I2_154 I1_154))
(assert (= I1_154 (str.len T_6a))) ; len 0
(assert (= I1_158 (str.len T_6a))) ; len 0
(assert (= 0 (str.len T1_154))) ; len 1
(assert (= I0_154 (str.len PCTEMP_LHS_41))) ; len 2
(assert (= T_6b (str.len T1_158))) ; len 3
(assert (= I0_158 (str.len PCTEMP_LHS_103))) ; len 4
(assert T_102)
(check-sat)
(exit)
